
--- Job Untitled_4.gms Start 07/22/15 15:14:45 24.4.5 r52258 WEX-VS8 x86 32bit/MS Windows
GAMS 24.4.5   Copyright (C) 1987-2015 GAMS Development. All rights reserved
Licensee: Ignacio E. Grossmann                           G150105/0001AO-GEN
          Carnegie Mellon University, Dept. of Chemical Engineering  DC9476
          License for teaching and research at degree granting institutions
--- Starting compilation
--- Untitled_4.gms(99) 3 Mb
--- .max_time_ref.gms(1) 3 Mb
--- Untitled_4.gms(121) 3 Mb
--- Starting execution: elapsed 0:00:00.003
--- Untitled_4.gms(100) 4 Mb
--- Generating RMIP model prob
--- Untitled_4.gms(104) 4 Mb
---   110 rows  65 columns  265 non-zeroes
---   20 discrete-columns
--- Executing CPLEX: elapsed 0:00:00.016

IBM ILOG CPLEX   24.4.5 r52258 Released May 26, 2015 VS8 x86 32bit/MS Windows 
Cplex 12.6.1.0

Reading data...
Starting Cplex...
Space for names approximately 0.00 Mb
Use option 'names no' to turn use of names off
Tried aggregator 1 time.
LP Presolve eliminated 1 rows and 1 columns.
Reduced LP has 109 rows, 64 columns, and 240 nonzeros.
Presolve time = 0.02 sec. (0.05 ticks)
Initializing dual steep norms . . .

Iteration log . . .
Iteration:     1   Dual objective     =             0.000000
LP status(1): optimal
Cplex Time: 0.02sec (det. 0.16 ticks)

Optimal solution found.
Objective :           0.000000

--- Restarting execution
--- Untitled_4.gms(104) 2 Mb
--- Reading solution for model prob
--- Executing after solve: elapsed 0:00:00.096
--- Untitled_4.gms(106) 3 Mb
--- Generating MIP model prob
--- Untitled_4.gms(108) 3 Mb
---   110 rows  65 columns  265 non-zeroes
---   20 discrete-columns
--- Executing CPLEX: elapsed 0:00:00.109

IBM ILOG CPLEX   24.4.5 r52258 Released May 26, 2015 VS8 x86 32bit/MS Windows 
Cplex 12.6.1.0

Reading data...
Starting Cplex...
Space for names approximately 0.00 Mb
Use option 'names no' to turn use of names off
Tried aggregator 2 times.
MIP Presolve eliminated 61 rows and 21 columns.
MIP Presolve modified 226 coefficients.
Aggregator did 20 substitutions.
Reduced MIP has 29 rows, 24 columns, and 80 nonzeros.
Reduced MIP has 20 binaries, 0 generals, 0 SOSs, and 0 indicators.
Presolve time = 0.00 sec. (0.16 ticks)
Found incumbent of value 826.000000 after 0.00 sec. (0.39 ticks)
Probing time = 0.00 sec. (0.01 ticks)
Tried aggregator 1 time.
Reduced MIP has 29 rows, 24 columns, and 80 nonzeros.
Reduced MIP has 20 binaries, 4 generals, 0 SOSs, and 0 indicators.
Presolve time = 0.05 sec. (0.04 ticks)
Probing time = 0.00 sec. (0.01 ticks)
Clique table members: 6.
MIP emphasis: balance optimality and feasibility.
MIP search method: dynamic search.
Parallel mode: none, using 1 thread.
Tried aggregator 1 time.
No LP presolve or aggregator reductions.
Presolve time = 0.00 sec. (0.01 ticks)

Iteration log . . .
Iteration:     1   Dual objective     =            21.000000
Root relaxation solution time = 0.00 sec. (0.06 ticks)

        Nodes                                         Cuts/
   Node  Left     Objective  IInf  Best Integer    Best Bound    ItCnt     Gap

*     0+    0                          826.0000       -0.0000           100.00%
Found incumbent of value 826.000000 after 0.05 sec. (0.56 ticks)
      0     0      355.0588    12      826.0000      355.0588       22   57.01%
*     0+    0                          532.0000      355.0588            33.26%
Found incumbent of value 532.000000 after 0.05 sec. (0.63 ticks)
      0     0      370.6562    12      532.0000       Cuts: 3       25   30.33%
      0     0      385.2043    14      532.0000       Cuts: 3       29   27.59%
*     0+    0                          448.0000      385.2043            14.02%
Found incumbent of value 448.000000 after 0.05 sec. (1.04 ticks)
      0     0      387.7634    16      448.0000      Fract: 1       31   13.45%
      0     2      387.7634    16      448.0000      390.1053       31   12.92%
Elapsed time = 0.05 sec. (1.43 ticks, tree = 0.00 MB, solutions = 3)
*     3     3      integral     0      444.0000      397.6349       46   10.44%
Found incumbent of value 444.000000 after 0.05 sec. (1.51 ticks)

Cover cuts applied:  1
Gomory fractional cuts applied:  3

Root node processing (before b&c):
  Real time             =    0.05 sec. (1.43 ticks)
Sequential b&c:
  Real time             =    0.00 sec. (0.39 ticks)
                          ------------
Total (root+branch&cut) =    0.05 sec. (1.82 ticks)
MIP status(101): integer optimal solution
Cplex Time: 0.05sec (det. 1.82 ticks)
Fixing integer variables, and solving final LP...
Tried aggregator 1 time.
LP Presolve eliminated 110 rows and 65 columns.
All rows and columns eliminated.
Presolve time = 0.00 sec. (0.03 ticks)
Fixed MIP status(1): optimal
Cplex Time: 0.00sec (det. 0.07 ticks)

Proven optimal solution.

MIP Solution:          444.000000    (83 iterations, 14 nodes)
Final Solve:           444.000000    (0 iterations)

Best possible:         444.000000
Absolute gap:            0.000000
Relative gap:            0.000000

--- Restarting execution
--- Untitled_4.gms(108) 2 Mb
--- Reading solution for model prob
--- Executing after solve: elapsed 0:00:00.226
--- Untitled_4.gms(114) 3 Mb
--- GDX File C:\Users\sterraza\Desktop\Documents\Research\Lagrangean_GDP\Logic_based_B_B_jobshop_64_65\zzz.gdx
*** Status: Normal completion
--- Job Untitled_4.gms Stop 07/22/15 15:14:46 elapsed 0:00:00.235
